58
150
105	4
104	1
103	1
102	3
100	2
97	1
96	2
95	1
92	1
91	3
87	3
85	1
84	2
82	3
81	2
78	1
76	4
74	1
71	2
69	3
67	1
65	1
62	4
61	1
59	2
58	1
57	2
56	1
55	2
53	1
52	3
50	2
47	2
46	1
45	2
43	1
42	3
41	1
40	1
39	1
38	2
37	2
36	3
35	2
34	1
32	1
31	3
30	1
28	1
25	2
24	1
23	1
22	1
21	1
20	1
19	1
18	1
16	1
